27
11
25 26 2 23 16 4 10 11 15 24 6
18 16 1 6 25 13 7 20 24 17 0 23 5
1 13 24
0 5 11 24 1 14 19 23
9 21 8 17 26 14 1 23 13 7 15 20
1 7 22 20 5 14 6 13 18 25 0 2 24 8 23 11 9 10 3 16 12 26 4 19 21
15 19 24 2 25 4 26 0 12 7 11 1 8 13 6 14 22 23 3 21 9 10 20 5 18
8 23 20 2 16 3 1 25 6 13 17 4 14 12 26 0 15 10
20 23 3 22 0 17 14 6 25 4 15 8 21 19 9 10 24 1
10 17 8 25 7 3 19 9 13 22 26
19 12 14 0 6 21 8 9 24 13 11 23 2 16 10 4 26 5 25 18 20
